problems/RamseyNumbers/RamseyNumbers-models/noch/O2/lingeling/model_1_1-k3l4r8-solution000001.eprime-solution
language ESSENCE' 1.0

letting colouring_FunctionND be
        [[1, 2, 2, 2, 2, 2, 1, 1; int(0..7)], [2, 1, 1, 2, 2, 1, 2, 1; int(0..7)], [2, 1, 1, 1, 2, 2, 1, 2; int(0..7)],
         [2, 2, 1, 1, 1, 2, 2, 2; int(0..7)], [2, 2, 2, 1, 1, 1, 2, 2; int(0..7)], [2, 1, 2, 2, 1, 1, 1, 2; int(0..7)],
         [1, 2, 1, 2, 2, 1, 1, 2; int(0..7)], [1, 1, 2, 2, 2, 2, 2, 1; int(0..7)]; int(0..7)]
